%%%%%%%%%%%%%%%%%%%%%%%%%%%%%%%%%%%%%%%%%%%%%%%%%%%%%%%%%%%%%%%%%%%%%%%%%
%FILE DATA:	Soccer Computational Problem for MiniZinc Models
%AUTHORS:	Robinson Duque, Alejandro Arbelaez, Juan Francisco Díaz
%CONTACT:  	robinson.duque@correounivalle.edu.co 
%LAST UPDATE:	May, 2018 
%ROUND ROBIN:2
%TEAMS:20
%PRESENT FIXTURE:32
%FIXTURES TO PLAY:6
%GAMES TO PLAY:60
%%%%%%%%%%%%%%%%%%%%%%%%%%%%%%%%%%%%%%%%%%%%%%%%%%%%%%%%%%%%%%%%%%%%%%%%%
%Number of teams:
n=20;

%For the purpose of our models, we offer two representations of the games to play, namely fixtures and games to play:

%Fixtures to play:
%fixtures=[|0,1,0,1,0,1,0,0,0,0,1,0,1,0,0,0,0,1,0,0
%|1,0,0,0,0,1,0,1,0,1,1,0,1,0,0,0,0,0,0,0
%|0,0,0,0,1,0,1,0,0,1,0,0,0,0,1,1,0,0,0,1
%|1,0,0,0,0,0,0,1,1,1,0,1,0,0,0,1,0,0,0,0
%|0,0,1,0,0,0,1,0,0,0,0,0,1,1,0,1,0,0,0,1
%|1,1,0,0,0,0,0,1,0,0,0,0,1,0,0,1,0,0,0,1
%|0,0,1,0,1,0,0,0,0,0,0,1,0,0,1,0,0,1,0,1
%|0,1,0,1,0,1,0,0,0,0,1,0,0,0,0,0,1,1,0,0
%|0,0,0,1,0,0,0,0,0,0,1,0,1,0,1,0,1,1,0,0
%|0,1,1,1,0,0,0,0,0,0,1,0,0,0,0,1,1,0,0,0
%|1,1,0,0,0,0,0,1,1,1,0,0,0,0,0,0,1,0,0,0
%|0,0,0,1,0,0,1,0,0,0,0,0,0,1,0,0,0,1,1,1
%|1,1,0,0,1,1,0,0,1,0,0,0,0,1,0,0,0,0,0,0
%|0,0,0,0,1,0,0,0,0,0,0,1,1,0,1,0,1,0,1,0
%|0,0,1,0,0,0,1,0,1,0,0,0,0,1,0,1,0,0,1,0
%|0,0,1,1,1,1,0,0,0,1,0,0,0,0,1,0,0,0,0,0
%|0,0,0,0,0,0,0,1,1,1,1,0,0,1,0,0,0,0,1,0
%|1,0,0,0,0,0,1,1,1,0,0,1,0,0,0,0,0,0,1,0
%|0,0,0,0,0,0,0,0,0,0,0,1,0,1,1,0,1,1,0,1
%|0,0,1,0,1,1,1,0,0,0,0,1,0,0,0,0,0,0,1,0|];

%Played Fixtures:
%PlayedFixtures=[|0,1,2,1,2,1,2,2,2,2,1,2,1,2,2,2,2,1,2,2
%|1,0,2,2,2,1,2,1,2,1,1,2,1,2,2,2,2,2,2,2
%|2,2,0,2,1,2,1,2,2,1,2,2,2,2,1,1,2,2,2,1
%|1,2,2,0,2,2,2,1,1,1,2,1,2,2,2,1,2,2,2,2
%|2,2,1,2,0,2,1,2,2,2,2,2,1,1,2,1,2,2,2,1
%|1,1,2,2,2,0,2,1,2,2,2,2,1,2,2,1,2,2,2,1
%|2,2,1,2,1,2,0,2,2,2,2,1,2,2,1,2,2,1,2,1
%|2,1,2,1,2,1,2,0,2,2,1,2,2,2,2,2,1,1,2,2
%|2,2,2,1,2,2,2,2,0,2,1,2,1,2,1,2,1,1,2,2
%|2,1,1,1,2,2,2,2,2,0,1,2,2,2,2,1,1,2,2,2
%|1,1,2,2,2,2,2,1,1,1,0,2,2,2,2,2,1,2,2,2
%|2,2,2,1,2,2,1,2,2,2,2,0,2,1,2,2,2,1,1,1
%|1,1,2,2,1,1,2,2,1,2,2,2,0,1,2,2,2,2,2,2
%|2,2,2,2,1,2,2,2,2,2,2,1,1,0,1,2,1,2,1,2
%|2,2,1,2,2,2,1,2,1,2,2,2,2,1,0,1,2,2,1,2
%|2,2,1,1,1,1,2,2,2,1,2,2,2,2,1,0,2,2,2,2
%|2,2,2,2,2,2,2,1,1,1,1,2,2,1,2,2,0,2,1,2
%|1,2,2,2,2,2,1,1,1,2,2,1,2,2,2,2,2,0,1,2
%|2,2,2,2,2,2,2,2,2,2,2,1,2,1,1,2,1,1,0,1
%|2,2,1,2,1,1,1,2,2,2,2,1,2,2,2,2,2,2,1,0|];

%Games to play:
games=[|2,1|4,1|5,3|6,1|6,2|7,3|7,5|8,2|8,4|8,6|9,4|10,2|10,3|10,4|11,1|11,2|11,8|11,9|11,10|12,4|12,7|13,1|13,2|13,5|13,6|13,9|14,5|14,12|14,13|15,3|15,7|15,9|15,14|16,3|16,4|16,5|16,6|16,10|16,15|17,8|17,9|17,10|17,11|17,14|18,1|18,7|18,8|18,9|18,12|19,12|19,14|19,15|19,17|19,18|20,3|20,5|20,6|20,7|20,12|20,19|];

%Played Games:
%PlayedGames=[|2,1|3,1|3,1|3,2|3,2|4,1|4,2|4,2|4,3|4,3|5,1|5,1|5,2|5,2|5,3|5,4|5,4|6,1|6,2|6,3|6,3|6,4|6,4|6,5|6,5|7,1|7,1|7,2|7,2|7,3|7,4|7,4|7,5|7,6|7,6|8,1|8,1|8,2|8,3|8,3|8,4|8,5|8,5|8,6|8,7|8,7|9,1|9,1|9,2|9,2|9,3|9,3|9,4|9,5|9,5|9,6|9,6|9,7|9,7|9,8|9,8|10,1|10,1|10,2|10,3|10,4|10,5|10,5|10,6|10,6|10,7|10,7|10,8|10,8|10,9|10,9|11,1|11,2|11,3|11,3|11,4|11,4|11,5|11,5|11,6|11,6|11,7|11,7|11,8|11,9|11,10|12,1|12,1|12,2|12,2|12,3|12,3|12,4|12,5|12,5|12,6|12,6|12,7|12,8|12,8|12,9|12,9|12,10|12,10|12,11|12,11|13,1|13,2|13,3|13,3|13,4|13,4|13,5|13,6|13,7|13,7|13,8|13,8|13,9|13,10|13,10|13,11|13,11|13,12|13,12|14,1|14,1|14,2|14,2|14,3|14,3|14,4|14,4|14,5|14,6|14,6|14,7|14,7|14,8|14,8|14,9|14,9|14,10|14,10|14,11|14,11|14,12|14,13|15,1|15,1|15,2|15,2|15,3|15,4|15,4|15,5|15,5|15,6|15,6|15,7|15,8|15,8|15,9|15,10|15,10|15,11|15,11|15,12|15,12|15,13|15,13|15,14|16,1|16,1|16,2|16,2|16,3|16,4|16,5|16,6|16,7|16,7|16,8|16,8|16,9|16,9|16,10|16,11|16,11|16,12|16,12|16,13|16,13|16,14|16,14|16,15|17,1|17,1|17,2|17,2|17,3|17,3|17,4|17,4|17,5|17,5|17,6|17,6|17,7|17,7|17,8|17,9|17,10|17,11|17,12|17,12|17,13|17,13|17,14|17,15|17,15|17,16|17,16|18,1|18,2|18,2|18,3|18,3|18,4|18,4|18,5|18,5|18,6|18,6|18,7|18,8|18,9|18,10|18,10|18,11|18,11|18,12|18,13|18,13|18,14|18,14|18,15|18,15|18,16|18,16|18,17|18,17|19,1|19,1|19,2|19,2|19,3|19,3|19,4|19,4|19,5|19,5|19,6|19,6|19,7|19,7|19,8|19,8|19,9|19,9|19,10|19,10|19,11|19,11|19,12|19,13|19,13|19,14|19,15|19,16|19,16|19,17|19,18|20,1|20,1|20,2|20,2|20,3|20,4|20,4|20,5|20,6|20,7|20,8|20,8|20,9|20,9|20,10|20,10|20,11|20,11|20,12|20,13|20,13|20,14|20,14|20,15|20,15|20,16|20,16|20,17|20,17|20,18|20,18|20,19|];

%Played Games - Win Results:
%% 0  1  1  0  0  1  0  2  0  0  1  1  0  0  0  0  0  1  2  0
%% 0  0  2  0  0  1  2  0  2  0  1  2  0  0  0  2  0  0  0  0
%% 0  0  0  0  0  0  0  0  0  0  0  0  0  0  0  0  0  0  0  0
%% 0  0  0  0  0  0  0  0  0  0  0  0  0  0  0  0  0  0  0  0
%% 0  0  0  0  0  0  0  0  0  0  0  0  0  0  0  0  0  0  0  0
%% 0  0  0  0  2  0  1  0  0  0  0  1  0  1  0  1  0  0  2  0
%% 0  0  0  0  0  0  0  0  0  0  0  0  0  0  0  0  0  0  0  0
%% 0  0  0  0  0  1  0  0  0  0  0  1  0  2  0  0  0  0  0  0
%% 0  0  0  1  0  0  0  0  0  0  0  0  0  0  0  0  0  0  0  0
%% 2  1  1  1  2  0  1  0  2  0  1  0  2  1  0  0  0  2  0  0
%% 0  0  0  0  2  0  2  1  0  0  0  0  0  1  0  0  0  0  0  0
%% 0  0  0  0  0  0  0  0  0  0  0  0  0  0  0  0  0  0  0  0
%% 0  0  0  0  0  0  1  2  0  0  0  0  0  1  0  0  0  2  2  2
%% 0  0  0  0  0  0  0  0  0  0  0  0  0  0  0  0  0  0  0  0
%% 0  0  0  0  0  0  1  2  0  2  2  2  2  1  0  1  2  2  0  2
%% 0  0  0  1  0  0  0  0  0  0  0  1  0  0  0  0  0  0  2  2
%% 2  0  1  2  0  2  0  0  1  0  0  2  2  0  0  0  0  2  0  2
%% 0  0  0  2  2  1  0  0  0  0  0  0  0  0  0  0  0  0  0  0
%% 0  0  1  0  2  0  1  0  2  1  1  1  0  1  0  0  0  0  0  0
%% 0  0  1  0  0  0  1  0  0  0  0  0  0  0  0  0  0  0  0  0
%Played Games - Tie Results:
%% 0  0  1  1  2  0  2  0  2  0  0  1  1  2  2  2  0  0  0  2
%% 0  0  0  2  2  0  0  1  0  0  0  0  1  2  2  0  2  2  2  2
%% 1  0  0  2  1  2  1  2  2  0  2  2  2  2  1  1  1  2  1  0
%% 1  2  2  0  2  2  2  1  0  0  2  1  2  2  2  0  0  0  2  2
%% 2  2  1  2  0  0  1  2  2  0  0  2  1  1  2  1  2  0  0  1
%% 0  0  2  2  0  0  1  0  2  2  2  1  1  1  2  0  0  1  0  1
%% 2  0  1  2  1  1  0  2  2  1  0  1  1  2  0  2  2  1  1  0
%% 0  1  2  1  2  0  2  0  2  2  0  1  0  0  0  2  1  1  2  2
%% 2  0  2  0  2  2  2  2  0  0  1  2  1  2  1  2  0  1  0  2
%% 0  0  0  0  0  2  1  2  0  0  0  2  0  1  0  1  1  0  1  2
%% 0  0  2  2  0  2  0  0  1  0  0  2  2  1  0  2  1  2  1  2
%% 1  0  2  1  2  1  1  1  2  2  2  0  2  1  0  1  0  1  0  1
%% 1  1  2  2  1  1  1  0  1  0  2  2  0  0  0  2  0  0  0  0
%% 2  2  2  2  1  1  2  0  2  1  1  1  0  0  0  2  1  2  0  2
%% 2  2  1  2  2  2  0  0  1  0  0  0  0  0  0  0  0  0  1  0
%% 2  0  1  0  1  0  2  2  2  1  2  1  2  2  0  0  2  2  0  0
%% 0  2  1  0  2  0  2  1  0  1  1  0  0  1  0  2  0  0  1  0
%% 0  2  2  0  0  1  1  1  1  0  2  1  0  2  0  2  0  0  1  2
%% 0  2  1  2  0  0  1  2  0  1  1  0  0  0  1  0  1  1  0  1
%% 2  2  0  2  1  1  0  2  2  2  2  1  0  2  0  0  0  2  1  0
%Played Games - Lose Results:
%% 0  0  0  0  0  0  0  0  0  2  0  0  0  0  0  0  2  0  0  0
%% 1  0  0  0  0  0  0  0  0  1  0  0  0  0  0  0  0  0  0  0
%% 1  2  0  0  0  0  0  0  0  1  0  0  0  0  0  0  1  0  1  1
%% 0  0  0  0  0  0  0  0  1  1  0  0  0  0  0  1  2  2  0  0
%% 0  0  0  0  0  2  0  0  0  2  2  0  0  0  0  0  0  2  2  0
%% 1  1  0  0  0  0  0  1  0  0  0  0  0  0  0  0  2  1  0  0
%% 0  2  0  0  0  1  0  0  0  1  2  0  1  0  1  0  0  0  1  1
%% 2  0  0  0  0  0  0  0  0  0  1  0  2  0  2  0  0  0  0  0
%% 0  2  0  0  0  0  0  0  0  2  0  0  0  0  0  0  1  0  2  0
%% 0  0  0  0  0  0  0  0  0  0  0  0  0  0  2  0  0  0  1  0
%% 1  1  0  0  0  0  0  0  0  1  0  0  0  0  2  0  0  0  1  0
%% 1  2  0  0  0  1  0  1  0  0  0  0  0  0  2  1  2  0  1  0
%% 0  0  0  0  0  0  0  0  0  2  0  0  0  0  2  0  2  0  0  0
%% 0  0  0  0  0  1  0  2  0  1  1  0  1  0  1  0  0  0  1  0
%% 0  0  0  0  0  0  0  0  0  0  0  0  0  0  0  0  0  0  0  0
%% 0  2  0  0  0  1  0  0  0  0  0  0  0  0  1  0  0  0  0  0
%% 0  0  0  0  0  0  0  0  0  0  0  0  0  0  2  0  0  0  0  0
%% 1  0  0  0  0  0  0  0  0  2  0  0  2  0  2  0  2  0  0  0
%% 2  0  0  0  0  2  0  0  0  0  0  0  2  0  0  2  0  0  0  0
%% 0  0  0  0  0  0  0  0  0  0  0  0  2  0  2  2  2  0  0  0

%%Initial points:
iPoints=[48, 54, 25, 25, 22, 42, 22, 33, 27, 61, 38, 21, 46, 24, 70, 40, 62, 33, 44, 28];

%%Initial positions:
%iPositions=[5, 4, 16, 15, 19, 8, 18, 12, 14, 3, 10, 20, 6, 17, 1, 9, 2, 11, 7, 13];

%%Position Constraints:
%numberPositionConstraints=2;

%%Total Fixtures:
%totalFixtures=38;

%%Fixtures to Play:
%fixturesToPlay=6;

%%Position Constraints Built With
%wantedPoints=[1, 3, 3, 1, 0, 0, 3, 0, 1, 0, 0, 1, 1, 3, 1, 0, 3, 0, 1, 0, 0, 1, 1, 1, 3, 3, 0, 3, 0, 1, 0, 1, 0, 0, 3, 0, 0, 1, 3, 0, 3, 3, 3, 3, 1, 3, 0, 1, 1, 0, 0, 0, 0, 3, 3, 0, 3, 1, 0, 0];

%POSITION CONSTRAINTS
%%[|teamID, operator, position|...]
%%operators index:
%%%1 for =  operator
%%%2 for >  operator
%%%3 for >= operator
%%%4 for <  operator
%%%5 for <= operator

positionConstraints=[|7,1,18|8,1,11|];

%SCORE VECTOR CONSTRAINTS
%%[|teamID, operator, wantedPoints|...]
%%operators index:
%%%1 for =  operator
%%%2 for >  operator
%%%3 for >= operator
%%%4 for <  operator
%%%5 for <= operator

%scoreVectorConstraints=[|7,1,32|8,1,40|];

%Instance Features:
%features=T,FP,TF,C,C/T,C/TF,FP/TF,FP/T,FP*C/T,FP*T/C,(C/T)*(FP/TF),Distance,Distance/C,Distance/T,Distance/(C*T)
%values=20,6,38,2,0.1,0.05263157894736842,0.1578947368421053,0.3,0.6,60.0,0.01578947368421053,1,0.5,0.05,0.025



gamesOfEveryTeam=[6,6,6,6,6,6,6,6,6,6,6,6,6,6,6,6,6,6,6,6];
weights=[|31,30,0,39|51,16,0,33|31,35,0,34|59,20,0,21|74,26,0,0|24,12,0,64|64,14,0,22|47,8,0,45|43,57,0,0|57,24,0,19|93,3,0,4|16,37,0,47|33,32,0,35|93,0,0,7|98,2,0,0|55,30,0,15|34,18,0,48|13,60,0,27|95,0,0,5|49,51,0,0|87,10,0,3|48,19,0,33|4,46,0,50|40,8,0,52|2,15,0,83|57,36,0,7|59,27,0,14|37,15,0,48|6,13,0,81|75,14,0,11|7,88,0,5|84,10,0,6|49,27,0,24|67,22,0,11|71,6,0,23|38,3,0,59|7,68,0,25|84,6,0,10|90,9,0,1|72,24,0,4|43,53,0,4|85,7,0,8|39,8,0,53|29,0,0,71|91,2,0,7|86,5,0,9|4,92,0,4|22,71,0,7|54,44,0,2|63,24,0,13|5,72,0,23|76,22,0,2|35,23,0,42|90,10,0,0|16,52,0,32|39,61,0,0|69,24,0,7|42,47,0,11|1,1,0,98|72,13,0,15|];